(declare-const term_to_project_onto1 Real)
(declare-const term_to_project_onto2 Real)
(declare-const term_to_project_onto0 Real)
(declare-const tmp___2 Int)
(declare-const term_to_project_onto Real)
(assert (exists
         ((|tmp___2'?1| Int) (|z'?2| Int) (|y'?3| Int) (|x'?4| Int)
            (havoc?5 Int) (x?6 Int) (y?7 Int) (z?8 Int))
         (and (<= (- x?6) 0) (<= (- y?7) 0) (<= z?8 0)
                (or (<= (+ havoc?5 1) 0) (<= (+ (- havoc?5) 1) 0))
                (= (+ |tmp___2'?1| (- havoc?5)) 0) (= (+ |z'?2| (- z?8) 2) 0)
                (= (+ |y'?3| (- y?7) -1) 0) (= (+ |x'?4| (- x?6) -1) 0)
                (= term_to_project_onto2 (+ |x'?4| (- x?6)))
                (= term_to_project_onto1 (+ |y'?3| (- y?7)))
                (= term_to_project_onto0 (+ |z'?2| (- z?8)))
                (= term_to_project_onto (+ |tmp___2'?1| (- tmp___2))))))
(check-sat)
